2025-02-23 17:41:01,156 - INFO - Set parameter WLSAccessID
2025-02-23 17:41:01,156 - INFO - Set parameter WLSSecret
2025-02-23 17:41:01,157 - INFO - Set parameter LicenseID to value 2626770
2025-02-23 17:41:01,172 - INFO - Academic license 2626770 - for non-commercial use only - registered to fa___@uw.edu
2025-02-23 17:41:01,174 - INFO - Initialization complete
2025-02-23 17:41:10,392 - INFO - Variables created successfully
2025-02-23 17:42:49,491 - INFO - Constraints added successfully
2025-02-23 17:42:49,731 - INFO - Objective function set successfully
2025-02-23 17:42:50,295 - INFO - Set parameter MIPGap to value 0.1
2025-02-23 17:42:50,295 - INFO - Set parameter TimeLimit to value 3600
2025-02-23 17:42:50,295 - INFO - Set parameter MIPFocus to value 1
2025-02-23 17:42:50,295 - INFO - Starting optimization - accepting solutions within 10% of optimal
2025-02-23 17:42:50,295 - INFO - Maximum possible satisfied requests: 9600
2025-02-23 17:42:51,956 - INFO - Gurobi Optimizer version 12.0.1 build v12.0.1rc0 (win64 - Windows 11.0 (26100.2))
2025-02-23 17:42:51,956 - INFO - 
2025-02-23 17:42:51,956 - INFO - CPU model: AMD Ryzen 7 2700X Eight-Core Processor, instruction set [SSE2|AVX|AVX2]
2025-02-23 17:42:51,957 - INFO - Thread count: 8 physical cores, 16 logical processors, using up to 16 threads
2025-02-23 17:42:51,957 - INFO - 
2025-02-23 17:42:51,957 - INFO - Non-default parameters:
2025-02-23 17:42:51,957 - INFO - TimeLimit  3600
2025-02-23 17:42:51,957 - INFO - MIPGap  0.1
2025-02-23 17:42:51,957 - INFO - MIPFocus  1
2025-02-23 17:42:51,957 - INFO - 
2025-02-23 17:42:51,959 - INFO - Academic license 2626770 - for non-commercial use only - registered to fa___@uw.edu
2025-02-23 17:42:51,959 - INFO - Optimize a model with 6490921 rows, 2428104 columns and 17788464 nonzeros
2025-02-23 17:42:52,163 - INFO - Model fingerprint: 0xf7328e4f
2025-02-23 17:42:52,165 - INFO - Variable types: 0 continuous, 2428104 integer (2428104 binary)
2025-02-23 17:42:52,192 - INFO - Coefficient statistics:
2025-02-23 17:42:52,193 - INFO -   Matrix range     [1e+00, 1e+00]
2025-02-23 17:42:52,193 - INFO -   Objective range  [1e+00, 1e+00]
2025-02-23 17:42:52,194 - INFO -   Bounds range     [1e+00, 1e+00]
2025-02-23 17:42:52,194 - INFO -   RHS range        [1e+00, 4e+01]
2025-02-23 17:42:59,841 - INFO - Presolve removed 877 rows and 32 columns (presolve time = 6s)...
2025-02-23 17:43:04,235 - INFO - Presolve removed 879 rows and 34 columns (presolve time = 10s)...
2025-02-23 17:43:09,238 - INFO - Presolve removed 879 rows and 34 columns (presolve time = 15s)...
2025-02-23 17:43:14,235 - INFO - Presolve removed 879 rows and 34 columns (presolve time = 20s)...
2025-02-23 17:43:19,242 - INFO - Presolve removed 879 rows and 34 columns (presolve time = 25s)...
2025-02-23 17:43:24,236 - INFO - Presolve removed 879 rows and 34 columns (presolve time = 30s)...
2025-02-23 17:43:29,241 - INFO - Presolve removed 879 rows and 34 columns (presolve time = 35s)...
2025-02-23 17:43:34,244 - INFO - Presolve removed 879 rows and 34 columns (presolve time = 40s)...
2025-02-23 17:43:39,232 - INFO - Presolve removed 879 rows and 34 columns (presolve time = 45s)...
2025-02-23 17:43:44,237 - INFO - Presolve removed 879 rows and 34 columns (presolve time = 50s)...
2025-02-23 17:43:49,234 - INFO - Presolve removed 879 rows and 34 columns (presolve time = 55s)...
2025-02-23 17:43:54,240 - INFO - Presolve removed 879 rows and 34 columns (presolve time = 60s)...
2025-02-23 17:43:59,286 - INFO - Presolve removed 879 rows and 34 columns (presolve time = 65s)...
2025-02-23 17:44:04,280 - INFO - Presolve removed 879 rows and 34 columns (presolve time = 70s)...
2025-02-23 17:44:09,243 - INFO - Presolve removed 879 rows and 34 columns (presolve time = 75s)...
2025-02-23 17:44:14,279 - INFO - Presolve removed 879 rows and 34 columns (presolve time = 80s)...
2025-02-23 17:44:19,267 - INFO - Presolve removed 879 rows and 34 columns (presolve time = 85s)...
2025-02-23 17:44:24,262 - INFO - Presolve removed 879 rows and 34 columns (presolve time = 90s)...
2025-02-23 17:44:29,256 - INFO - Presolve removed 879 rows and 34 columns (presolve time = 95s)...
2025-02-23 17:44:34,264 - INFO - Presolve removed 879 rows and 34 columns (presolve time = 100s)...
2025-02-23 17:44:39,292 - INFO - Presolve removed 879 rows and 34 columns (presolve time = 105s)...
2025-02-23 17:44:44,281 - INFO - Presolve removed 879 rows and 34 columns (presolve time = 110s)...
2025-02-23 17:44:49,266 - INFO - Presolve removed 879 rows and 34 columns (presolve time = 115s)...
2025-02-23 17:44:54,296 - INFO - Presolve removed 879 rows and 34 columns (presolve time = 120s)...
2025-02-23 17:44:59,293 - INFO - Presolve removed 879 rows and 34 columns (presolve time = 125s)...
2025-02-23 17:45:04,274 - INFO - Presolve removed 879 rows and 34 columns (presolve time = 130s)...
2025-02-23 17:45:09,263 - INFO - Presolve removed 879 rows and 34 columns (presolve time = 135s)...
2025-02-23 17:45:14,264 - INFO - Presolve removed 879 rows and 34 columns (presolve time = 140s)...
2025-02-23 17:45:19,273 - INFO - Presolve removed 879 rows and 34 columns (presolve time = 145s)...
2025-02-23 17:45:24,275 - INFO - Presolve removed 879 rows and 34 columns (presolve time = 150s)...
2025-02-23 17:45:29,255 - INFO - Presolve removed 879 rows and 34 columns (presolve time = 155s)...
2025-02-23 17:45:34,270 - INFO - Presolve removed 879 rows and 34 columns (presolve time = 160s)...
2025-02-23 17:45:39,263 - INFO - Presolve removed 879 rows and 34 columns (presolve time = 165s)...
2025-02-23 17:45:44,249 - INFO - Presolve removed 879 rows and 34 columns (presolve time = 170s)...
2025-02-23 17:45:49,248 - INFO - Presolve removed 879 rows and 34 columns (presolve time = 175s)...
2025-02-23 17:45:54,278 - INFO - Presolve removed 879 rows and 34 columns (presolve time = 180s)...
2025-02-23 17:45:59,283 - INFO - Presolve removed 879 rows and 34 columns (presolve time = 185s)...
2025-02-23 17:46:04,282 - INFO - Presolve removed 879 rows and 34 columns (presolve time = 190s)...
2025-02-23 17:46:09,240 - INFO - Presolve removed 879 rows and 34 columns (presolve time = 195s)...
2025-02-23 17:46:14,281 - INFO - Presolve removed 879 rows and 34 columns (presolve time = 200s)...
2025-02-23 17:46:19,281 - INFO - Presolve removed 879 rows and 34 columns (presolve time = 205s)...
2025-02-23 17:46:24,258 - INFO - Presolve removed 879 rows and 34 columns (presolve time = 210s)...
2025-02-23 17:46:29,294 - INFO - Presolve removed 879 rows and 34 columns (presolve time = 215s)...
2025-02-23 17:46:34,242 - INFO - Presolve removed 879 rows and 34 columns (presolve time = 220s)...
2025-02-23 17:46:39,270 - INFO - Presolve removed 879 rows and 34 columns (presolve time = 225s)...
2025-02-23 17:46:44,264 - INFO - Presolve removed 879 rows and 34 columns (presolve time = 230s)...
2025-02-23 17:46:49,278 - INFO - Presolve removed 879 rows and 34 columns (presolve time = 235s)...
2025-02-23 17:46:54,276 - INFO - Presolve removed 879 rows and 34 columns (presolve time = 240s)...
2025-02-23 17:46:59,254 - INFO - Presolve removed 879 rows and 34 columns (presolve time = 245s)...
2025-02-23 17:47:04,272 - INFO - Presolve removed 879 rows and 34 columns (presolve time = 250s)...
2025-02-23 17:47:09,232 - INFO - Presolve removed 879 rows and 34 columns (presolve time = 255s)...
2025-02-23 17:47:14,240 - INFO - Presolve removed 879 rows and 34 columns (presolve time = 260s)...
2025-02-23 17:47:19,280 - INFO - Presolve removed 879 rows and 34 columns (presolve time = 265s)...
2025-02-23 17:47:24,281 - INFO - Presolve removed 879 rows and 34 columns (presolve time = 270s)...
2025-02-23 17:47:29,246 - INFO - Presolve removed 879 rows and 34 columns (presolve time = 275s)...
2025-02-23 17:47:34,270 - INFO - Presolve removed 879 rows and 34 columns (presolve time = 280s)...
2025-02-23 17:47:39,290 - INFO - Presolve removed 879 rows and 34 columns (presolve time = 285s)...
2025-02-23 17:47:44,266 - INFO - Presolve removed 879 rows and 34 columns (presolve time = 290s)...
2025-02-23 17:47:49,247 - INFO - Presolve removed 879 rows and 34 columns (presolve time = 295s)...
2025-02-23 17:47:54,236 - INFO - Presolve removed 879 rows and 34 columns (presolve time = 300s)...
2025-02-23 17:47:59,238 - INFO - Presolve removed 879 rows and 34 columns (presolve time = 305s)...
2025-02-23 17:48:04,247 - INFO - Presolve removed 879 rows and 34 columns (presolve time = 310s)...
2025-02-23 17:48:09,242 - INFO - Presolve removed 879 rows and 34 columns (presolve time = 315s)...
2025-02-23 17:48:14,246 - INFO - Presolve removed 879 rows and 34 columns (presolve time = 320s)...
2025-02-23 17:48:19,245 - INFO - Presolve removed 879 rows and 34 columns (presolve time = 325s)...
2025-02-23 17:48:24,276 - INFO - Presolve removed 879 rows and 62 columns (presolve time = 330s)...
2025-02-23 17:48:29,239 - INFO - Presolve removed 879 rows and 62 columns (presolve time = 335s)...
2025-02-23 17:48:34,296 - INFO - Presolve removed 879 rows and 62 columns (presolve time = 340s)...
2025-02-23 17:48:39,265 - INFO - Presolve removed 879 rows and 62 columns (presolve time = 345s)...
2025-02-23 17:48:44,282 - INFO - Presolve removed 879 rows and 62 columns (presolve time = 350s)...
2025-02-23 17:48:51,181 - INFO - Presolve removed 879 rows and 62 columns (presolve time = 357s)...
2025-02-23 17:49:16,074 - INFO - Presolve removed 879 rows and 62 columns (presolve time = 382s)...
2025-02-23 17:49:23,924 - INFO - Presolve removed 879 rows and 62 columns (presolve time = 390s)...
2025-02-23 17:49:24,462 - INFO - Presolve removed 879 rows and 62 columns (presolve time = 390s)...
2025-02-23 17:49:27,631 - INFO - Presolve removed 879 rows and 62 columns
2025-02-23 17:49:27,633 - INFO - Presolve time: 393.40s
2025-02-23 17:49:27,888 - INFO - Presolved: 6490042 rows, 2428042 columns, 17788200 nonzeros
2025-02-23 17:49:32,011 - INFO - Variable types: 0 continuous, 2428042 integer (2428042 binary)
2025-02-23 17:49:52,948 - INFO - 
2025-02-23 17:49:52,950 - INFO - Deterministic concurrent LP optimizer: primal simplex, dual simplex, and barrier
2025-02-23 17:49:52,950 - INFO - Showing barrier log only...
2025-02-23 17:49:52,950 - INFO - 
2025-02-23 17:50:26,170 - INFO - Root barrier log...
2025-02-23 17:50:26,175 - INFO - 
2025-02-23 17:50:26,185 - INFO - Ordering time: 0.00s
2025-02-23 17:50:26,189 - INFO - 
2025-02-23 17:50:26,190 - INFO - Barrier statistics:
2025-02-23 17:50:26,190 - INFO -  AA' NZ     : 1.111e+04
2025-02-23 17:50:26,192 - INFO -  Factor NZ  : 3.810e+04 (roughly 1 MB of memory)
2025-02-23 17:50:26,192 - INFO -  Factor Ops : 1.189e+06 (less than 1 second per iteration)
2025-02-23 17:50:26,192 - INFO -  Threads    : 1
2025-02-23 17:50:26,236 - INFO - 
2025-02-23 17:50:26,237 - INFO -                   Objective                Residual
2025-02-23 17:50:26,237 - INFO - Iter       Primal          Dual         Primal    Dual     Compl     Time
2025-02-23 17:50:26,238 - INFO -    0   9.60000000e+03  9.60240471e+03  9.33e+00 0.00e+00  1.20e-01   454s
2025-02-23 17:50:26,239 - INFO -    1   9.60000000e+03  9.62560794e+03  1.10e+00 9.71e-17  2.00e-02   454s
2025-02-23 17:50:26,241 - INFO -    2   9.60000000e+03  9.60783088e+03  1.91e-01 2.22e-16  3.88e-03   454s
2025-02-23 17:50:26,244 - INFO -    3   9.60000000e+03  9.60126186e+03  3.77e-03 9.71e-17  4.58e-04   454s
2025-02-23 17:50:26,245 - INFO -    4   9.60000000e+03  9.60000250e+03  4.00e-14 3.25e-17  8.87e-07   454s
2025-02-23 17:50:26,248 - INFO -    5   9.60000000e+03  9.60000000e+03  2.60e-14 2.99e-19  8.87e-10   454s
2025-02-23 17:50:26,250 - INFO -    6   9.60000000e+03  9.60000000e+03  2.44e-14 1.10e-22  8.87e-13   454s
2025-02-23 17:50:26,253 - INFO -    7   9.60000000e+03  9.60000000e+03  3.11e-15 1.96e-25  8.87e-16   454s
2025-02-23 17:50:26,253 - INFO - 
2025-02-23 17:50:26,254 - INFO - Barrier solved model in 7 iterations and 454.30 seconds (191.10 work units)
2025-02-23 17:50:26,254 - INFO - Optimal objective 9.60000000e+03
2025-02-23 17:50:26,254 - INFO - 
2025-02-23 17:50:26,258 - INFO - 
2025-02-23 17:50:26,260 - INFO - Root crossover log...
2025-02-23 17:50:26,261 - INFO - 
2025-02-23 17:50:26,264 - INFO -        0 DPushes remaining with DInf 0.0000000e+00               454s
2025-02-23 17:50:26,266 - INFO - 
2025-02-23 17:50:26,267 - INFO -      235 PPushes remaining with PInf 0.0000000e+00               454s
2025-02-23 17:50:26,269 - INFO -        0 PPushes remaining with PInf 0.0000000e+00               454s
2025-02-23 17:50:26,270 - INFO - 
2025-02-23 17:50:26,270 - INFO -   Push phase complete: Pinf 0.0000000e+00, Dinf 0.0000000e+00    454s
2025-02-23 17:50:26,270 - INFO - 
2025-02-23 17:50:26,272 - INFO - 
2025-02-23 17:50:26,273 - INFO - Root simplex log...
2025-02-23 17:50:26,273 - INFO - 
2025-02-23 17:50:26,273 - INFO - Iteration    Objective       Primal Inf.    Dual Inf.      Time
2025-02-23 17:50:26,273 - INFO -      238    9.6000000e+03   0.000000e+00   0.000000e+00    454s
2025-02-23 17:50:26,276 - INFO -      238    9.6000000e+03   0.000000e+00   0.000000e+00    454s
2025-02-23 17:50:26,825 - INFO - 
2025-02-23 17:50:26,826 - INFO - Use crossover to convert LP symmetric solution to basic solution...
2025-02-23 17:50:30,118 - INFO - Warning: Possible non-determinism after error
2025-02-23 17:50:30,118 - INFO - 
2025-02-23 17:50:30,700 - INFO - 
2025-02-23 17:50:30,700 - INFO - Explored 0 nodes (0 simplex iterations) in 458.74 seconds (191.03 work units)
2025-02-23 17:50:30,700 - INFO - Thread count was 1 (of 16 available processors)
2025-02-23 17:50:30,701 - INFO - 
2025-02-23 17:50:30,701 - INFO - Solution count 0
2025-02-23 17:50:30,701 - INFO - 
2025-02-23 17:50:30,701 - INFO - Solve interrupted (error code 10001)
2025-02-23 17:50:30,701 - INFO - Best objective -, best bound -, gap -
2025-02-23 17:50:30,802 - ERROR - Gurobi error: Out of memory
2025-02-23 17:50:30,804 - ERROR - Error running optimization: Out of memory
2025-02-23 17:50:30,824 - INFO - Warning: environment still referenced so free is deferred (Continue to use WLS)
